Solver command line: ['/home/mf/Dropbox/DATA/Arbeit/ETH/Opensource_Optimization_Workshop/_Solvers/Ubuntu_Bionic/Cbc-2.9.8/bin/cbc', '-printingOptions', 'all', '-import', '/home/mf/Dropbox/DATA/Arbeit/ETH/Opensource_Optimization_Workshop/02_Introduction_Pyomo_Farmers_Choice/tmp24rq0eok.pyomo.lp', '-stat=1', '-solve', '-solu', '/home/mf/Dropbox/DATA/Arbeit/ETH/Opensource_Optimization_Workshop/02_Introduction_Pyomo_Farmers_Choice/tmp24rq0eok.pyomo.soln']

Welcome to the CBC MILP Solver 
Version: 2.9.8 
Build Date: Oct 29 2018 
Revision Number: 2404 

command line - /home/mf/Dropbox/DATA/Arbeit/ETH/Opensource_Optimization_Workshop/_Solvers/Ubuntu_Bionic/Cbc-2.9.8/bin/cbc -printingOptions all -import /home/mf/Dropbox/DATA/Arbeit/ETH/Opensource_Optimization_Workshop/02_Introduction_Pyomo_Farmers_Choice/tmp24rq0eok.pyomo.lp -stat=1 -solve -solu /home/mf/Dropbox/DATA/Arbeit/ETH/Opensource_Optimization_Workshop/02_Introduction_Pyomo_Farmers_Choice/tmp24rq0eok.pyomo.soln (default strategy 1)
Option for printingOptions changed from normal to all
 CoinLpIO::readLp(): Maximization problem reformulated as minimization
Presolve 1 (-3) rows, 2 (-1) columns and 2 (-3) elements
Statistics for presolved model


Problem has 1 rows, 2 columns (2 with objective) and 2 elements
There are 2 singletons with objective 
Column breakdown:
0 of type 0.0->inf, 2 of type 0.0->up, 0 of type lo->inf, 
0 of type lo->up, 0 of type free, 0 of type fixed, 
0 of type -inf->0.0, 0 of type -inf->up, 0 of type 0.0->1.0 
Row breakdown:
0 of type E 0.0, 0 of type E 1.0, 0 of type E -1.0, 
0 of type E other, 0 of type G 0.0, 0 of type G 1.0, 
0 of type G other, 0 of type L 0.0, 0 of type L 1.0, 
1 of type L other, 0 of type Range 0.0->1.0, 0 of type Range other, 
0 of type Free 
Presolve 1 (-3) rows, 2 (-1) columns and 2 (-3) elements
0  Obj 0 Dual inf 13000 (2)
1  Obj -58500
Optimal - objective value -58500
After Postsolve, objective -58500, infeasibilities - dual 0 (0), primal 0 (0)
Optimal objective -58500 - 1 iterations time 0.002, Presolve 0.00
Total time (CPU seconds):       0.00   (Wallclock seconds):       0.01


